401 667
15 108
552 81
12 96
20 73
8 102
4 20
6 61
2 68
1 9
2 9
5 20
3 28
3 8
3 24
5 4
1 13
4 8
2 10
8 47
2 60
3 61
1 41
1 59
2 8
1 2
1 3
1 3
1 2
1 2
2 1
1 3
1 3
1 1
2 5
1 1
1 1
2 1
2 1
4 8
4 11
4 2
1 4
2 1
2 1
2 1
1 2
1 4
1 4
2 3
1 1
3 3
1 4
1 3
1 1
1 1
6 7
1 4
1 2
1 3
7 18
3 1
9 2
20 48
19 3
1 3
1 6
1 12
3 41
5 111
11 8
1 81
4 96
1 7
5 32
2 57
2 52
5 18
4 20
3 1
1 2
2 1
3 1
7 1
5 34
1 44
1 20
1 5
1 12
1 5
1 2
1 20
3 10
3 63
2 16
1 9
1 21
1 10
1 14
1 1
1 1
1 35
5 3
1 37
6 32
6 10
2 1
2 2
6 4
7 5
1 6
1 1
1 1
1 2
6 4
9 1
1 1
1 1
7 1
14 100
6 62
6 21
4 13
1 2
1 9
1 4
1 2
1 4
1 7
1 2
1 1
92 46
346 10
101 77
21 3
8 155
1 8
11 171
3 10
1 9
1 9
14 2
1 3
1 20
1 21
1 8
1 3
11 86
1 10
3 74
2 50
1 53
1 2
2 47
1 56
1 6
1 2
1 14
3 85
1 12
4 45
4 7
1 82
1 48
1 41
1 73
1 50
1 14
1 4
1 3
2 62
1 4
2 11
2 16
1 5
1 9
1 6
1 2
1 1
11 49
1 1
4 2
2 1
1 1
9 2
4 1
2 2
1 2
1 1
2 1
12 84
11 19
1 26
1 102
1 138
1 42
1 2
12 95
9 88
24 36
1 26
10 3
1 14
1 9
1 3
7 15
10 3
1 2
1 2
11 2
40 38
2 3
8 1
36 2
1 2
1 1
1 1
26 1
1 1
7 2
1 2
9 1
1 1
2 1
5 1
2 1
1 1
2 149
9 152
125 186
4 128
1 3
5 40
5 4
5 65
1 14
1 6
2 3
5 28
2 8
1 52
1 40
1 44
1 10
1 1
1 9
1 6
1 4
1 1
1 1
2 4
1 8
1 1
1 10
1 2
1 4
1 1
3 24
7 49
1 44
2 52
1 18
1 3
1 3
1 1
2 10
1 4
3 3
2 1
1 2
3 2
9 4
1 7
1 4
1 1
1 1
3 27
43 11
34 3
55 6
40 1
11 1
1 2
1 1
2 2
1 1
1 1
41 1
6 1
5 1
9 1
4 1
1 1
2 1
5 1
2 1
3 1
85 1
18 2
2 4
22 1
1 1
3 2
1 2
1 1
1 1
2 2
1 1
1 1
2 1
2 3
6 4
5 1
12 1
7 1
12 1
4 1
8 2
6 2
4 1
4 1
1 1
4 1
21 2
9 2
108 2
6 1
2 1
1 1
9 1
132 2
84 12
51 7
22 9
27 9
2 4
2 4
1 2
1 1
1 1
1 1
1 1
7 1
11 1
9 5
38 2
4 1
4 2
26 1
4 2
10 1
7 1
10 1
4 1
11 1
56 42
86 4
2 1
45 1
44 4
64 1
7 1
51 1
49 1
1 1
245 33
9 138
74 155
182 3
9 8
28 13
21 5
3 2
5 2
2 1
9 1
4 1
11 2
4 2
1 3
1 1
2 1
1 1
16 1
41 4
41 1
9 2
4 1
12 1
47 2
16 2
1 2
1 1
2 1
2 1
17 1
32 2
4 2
13 3
4 5
12 3
8 5
3 3
6 2
10 1
2 1
3 1
7 2
6 1
4 1
2 1
2 1
4 1
2 1
2 1
7 1
1 1
6 2
14 6
7 3
4 2
2 2
1 4
6 2
5 1
8 5
23 1
2 1
1 1
24 1
14 2
15 1
1 2
1 4
2 4
3 1
1 3
1 3
1 3
3 1
2 1
1 2
1 1
3 7
4 5
11 5
1 1
5 1
1 1
7 1
1 1
4 1
10 1
1 1
29 4
20 2
18 1
3 8
2 1
2 1
7 1
6 8
39 3
1 1
3 4
1 6
1 2
2 1
2 1
2 1
2 4
1 1
1 1
5 5
6 4
1 1
4 1
1 1
4 1
4 4
8 4
32 3
17 4
13 2
7 5
5 4
1 2
3 2
3 2
2 1
1 1
8 2
1 2
3 1
4 1
3 1
1 1
13 3
42 3
5 4
9 2
6 2
11 2
1 3
3 3
1 1
3 2
2 2
4 4
10 1
2 1
2 1
1 3
1 1
2 2
10 2
5 1
10 1
3 1
2 1
6 5
5 3
6 4
1 1
8 1
1 1
8 2
62 4
24 1
12 1
17 3
24 1
2 1
18 1
2 1
31 1
12 1
1 2
16 1
25 1
22 3
4 4
2 1
9 2
6 1
13 1
18 2
9 1
46 4
17 1
4 2
2 1
2 1
18 1
1 1
2 1
1 2
2 1
1 1
1 1
2 1
13 2
3 2
62 2
3 3
3 4
1 4
1 1
2 1
1 1
1 1
5 2
6 1
1 2
1 1
1 2
262 16
43 1
1 17
23 1
15 1
6 1
3 1
1 1
5 6
17 6
3 5
2 12
1 11
1 6
1 11
1 3
11 10
5 10
3 1
1 1
1 1
6 1
23 1
15 2
28 1
2 1
20 1
4 1
5 1
1 1
13 1
305 19
22 13
3 2
3 1
14 2
6 2
2 1
1 1
5 1
18 1
1 1
3 1
19 1
182 16
17 14
106 1
11 1
1 1
52 1
3 2
240 37
136 149
161 19
37 2
3 3
2 2
3 5
2 2
2 1
1 1
1 2
2 2
1 1
5 2
3 2
4 2
2 2
3 1
1 1
1 1
4 1
179 4
2 1
26 1
133 16
147 13
44 1
9 1
4 1
7 7
1 2
6 1
5 1
1 8
5 6
1 4
1 1
1 1
8 5
2 7
1 2
1 5
1 2
3 4
7 6
35 2
9 2
2 4
2 4
5 3
2 3
2 1
3 1
1 2
1 2
2 2
1 1
3 1
1 2
1 3
1 1
2 1
1 1
1 1
2 1
2 1
1 1
3 1
1 1
1 1
2 6
14 2
4 2
1 4
1 1
1 1
1 1
1 1
1 1
1 1
1 2
2 2
19 1
1 4
1 5
16 1
3 1
13 1
20 1
2 6
2 2
1 4
1 4
1 1
22 1
12 1
23 2
24 1
11 1
24 1
3 1
47 2
4 1
6 1
48 1
51 5
140 3
20 2
150 3
9 2
1 3
1 1
63 1
10 2
57 2
69 5
8 1
4 1
1 3
1 4
1 1
1 1
1 1
2 2
1 3
1 2
1 1
2 1
1 1
58 2
18 1
1 2
5 2
17 1
5 1
1 1
53 1
71 1
13 1
1 1
7 1
88 1
13 1
74 1
62 1
1 1
12 5
99 4
67 1
5 1
2 1
5 1
113 1
192 5
10 2
8 1
1 2
1 4
1 2
1 3
19 5
9 1
5 1
4 1
4 1
10 3
5 2
2 1
2 1
1 1
2 2
305 101
17 34
11 1
11 1
2 1
76 23
48 35
116 34
24 1
15 1
216 1
2 1
1 1
166 6
4 3
74 3
6 9
58 1
9 8
14 6
10 4
2 8
3 2
2 1
1 5
1 1
1 2
1 1
2 1
1 2
1 3
2 4
2 1
5 1
1 1
4 3
2 1
4 1
5 2
2 2
6 1
1 1
1 1
8 2
8 3
1 3
8 1
11 1
25 3
1 4
1 1
5 1
1 1
23 2
1 1
12 3
2 3
4 1
8 1
2 1
13 1
1 1
3 3
13 3
13 1
5 1
60 8
57 2
8 5
4 1
2 1
7 1
2 1
1 1
1 1
1 1
1 1
1 1
1 1
1 1
5 2
5 2
1 2
1 1
1 1
5 1
1 1
14 3
1 3
1 1
1 1
53 3
23 2
2 1
1 2
1 2
1 2
4 2
4 3
16 2
65 6
17 3
8 6
6 3
2 1
2 1
4 2
16 5
27 1
1 1
2 1
1 1
23 1
99 4
3 4
1 2
2 1
1 1
2 1
1 1
1 1
1 1
50 39
261 173
70 48
35 3
8 31
108 5
19 20
27 4
3 6
3 6
3 1
1 2
2 14
1 1
3 1
2 1
3 5
1 12
1 3
1 8
1 1
2 7
5 14
1 14
1 1
1 2
2 1
18 8
8 10
13 7
2 3
3 6
8 5
3 1
2 1
3 1
5 1
3 1
10 9
2 2
3 1
1 6
9 3
1 3
1 3
7 3
2 6
16 6
10 1
6 1
19 6
1 4
1 2
3 1
2 1
3 1
2 1
6 2
19 2
9 1
5 4
1 1
5 1
12 1
2 4
1 4
1 1
3 3
3 1
25 3
2 5
3 2
2 1
1 1
1 1
1 1
27 2
3 1
3 2
1 3
1 1
4 2
6 1
12 1
12 1
2 1
10 1
2 1
7 2
96 13
46 6
20 5
1 12
4 8
1 1
3 5
1 2
1 2
1 1
4 2
1 1
3 1
3 2
1 1
1 1
1 1
3 1
1 1
5 2
1 4
1 2
1 7
1 1
70 15
45 8
67 44
42 22
5 18
2 16
9 9
25 8
17 3
1 4
1 2
31 4
1 5
9 2
11 1
1 1
11 1
1 1
9 1
3 2
2 1
2 1
1 1
1 1
1 1
8 3
33 3
1 1
1 1
1 1
29 2
10 1
12 1
6 1
16 1
11 1
29 2
1 2
1 4
1 2
1 1
2 2
2 1
11 2
4 2
16 2
12 2
5 2
14 2
20 2
2 12
21 1
10 1
22 1
48 8
2 9
2 3
2 1
3 1
1 1
3 3
2 3
1 2
1 1
3 1
6 4
5 1
56 21
1 1
2 6
2 3
3 2
3 1
10 2
15 4
15 3
14 1
5 1
1 3
3 3
1 1
1 1
3 3
2 3
14 1
5 1
16 3
22 4
26 1
5 1
42 1
3 4
13 2
1 2
1 1
9 3
43 4
3 3
3 5
5 5
4 7
1 1
1 2
3 1
2 1
1 1
3 1
10 1
2 1
1 1
7 1
4 3
4 2
2 4
1 1
1 1
1 1
3 1
1 1
3 1
1 1
3 1
16 1
13 8
21 6
23 18
2 1
2 6
2 9
1 1
1 1
14 2
10 8
1 3
3 2
2 1
3 1
11 1
3 7
17 1
1 1
2 3
3 1
2 1
2 2
2 2
1 3
1 1
1 2
2 1
1 1
3 1
3 1
1 1
11 4
2 2
6 1
6 1
4 1
1 1
1 2
1 2
1 1
2 2
9 2
4 13
4 1
41 1
4 1
2 3
4 1
2 1
1 1
1 1
2 1
4 2
2 1
2 1
1 1
1 1
1 1
1 1
15 4
9 1
23 4
2 3
2 3
2 1
4 3
6 1
3 2
2 2
2 1
11 1
8 1
1 1
1 1
17 1
1 1
5 1
49 2
5 4
1 4
1 1
1 1
6 3
18 6
28 4
4 1
67 1
50 1
36 1
8 1
115 3
16 1
58 1
20 1
515 9
15 14
2 2
1 10
1 2
1 6
1 13
4 11
2 7
2 21
3 11
4 18
2 1
2 1
4 3
3 1
1 2
1 2
5 1
1 2
1 1
5 2
1 1
6 1
1 1
6 3
3 1
2 3
2 2
1 2
11 3
7 1
10 1
1 4
1 6
1 1
2 7
2 1
1 2
1 6
1 6
1 1
1 1
7 1
17 15
1 9
1 15
1 9
2 4
442 31
83 22
3 10
3 2
1 4
2 4
3 5
1 7
1 1
3 3
1 2
2 6
2 1
1 1
1 3
1 1
1 1
1 2
1 8
5 2
6 9
3 2
1 3
1 4
1 2
1 3
2 3
2 6
2 2
1 1
1 1
4 6
15 3
72 6
1 9
63 5
4 9
2 4
4 2
3 1
1 1
1 3
2 6
4 1
22 10
60 13
5 5
5 3
2 1
1 2
1 1
7 2
32 3
30 1
8 1
2 1
1 1
1 1
1 1
3 1
8 1
43 1
22 1
5 1
3 1
17 1
9 1
51 6
35 8
1 5
1 2
1 1
1 1
1 4
1 1
1 1
1 1
1 1
49 7
15 1
2 1
5 1
31 1
7 1
1 1
53 1
13 1
19 1
23 1
6 1
4 1
1 1
1 1
13 1
11 1
30 1
58 1
3 10
1 2
2 2
2 2
3 2
1 4
1 5
4 1
3 1
1 3
1 5
1 1
17 3
3 2
19 5
9 2
5 2
5 2
16 4
13 3
2 3
19 3
9 1
1 1
1 1
1 1
1 1
1 1
2 1
2 1
16 3
13 1
2 3
1 1
1 1
2 2
1 1
8 6
4 4
14 1
13 1
2 1
12 1
18 1
1 1
27 1
2 1
3 1
23 1
2 1
8 1
1 1
14 3
9 5
16 5
28 3
15 1
1 1
1 2
1 1
1 1
37 2
454 142
70 28
3 38
5 6
1 4
1 2
1 4
1 1
4 1
4 2
2 1
2 1
5 3
10 4
3 1
5 1
6 1
3 11
1 3
1 1
3 4
1 1
4 3
3 7
2 3
1 15
1 9
1 3
1 1
1 6
1 2
1 3
1 3
1 1
1 1
1 2
1 4
2 12
40 23
355 14
117 9
16 34
3 4
2 17
1 8
3 2
2 31
2 1
138 8
1 11
1 1
114 7
13 20
10 5
2 2
6 1
5 2
1 2
5 1
12 2
2 5
5 2
9 2
1 2
12 2
1 3
1 3
2 17
3 1
20 1
10 2
13 2
3 2
15 2
3 1
4 1
7 1
12 1
34 26
32 2
25 20
28 2
16 5
3 3
1 4
1 4
3 3
2 3
1 3
13 3
7 1
7 2
27 1
25 6
4 2
11 2
42 2
3 1
1 1
1 1
39 7
1 3
6 2
2 3
5 1
4 1
2 1
16 28
24 23
52 1
11 2
2 1
6 1
7 1
1 1
1 1
5 1
6 1
17 3
47 1
28 1
4 1
66 4
5 1
17 1
50 1
24 1
16 1
15 4
60 2
2 1
10 1
55 1
28 1
36 1
1 3
10 2
33 2
7 2
1 2
1 1
11 2
3 1
2 1
5 1
256 17
121 2
70 1
42 2
19 1
3 1
25 1
26 2
101 1
19 1
9 1
66 1
172 1
273 3
141 1
38 1
12 1
2 1
267 1
111 1
31 1
32 1
7 1
780 217
178 94
17 47
3 68
11 61
6 89
4 24
1 1
5 2
1 1
1 1
2 1
1 1
2 5
5 15
2 26
1 1
1 1
3 1
3 8
1 3
2 2
1 2
2 2
7 8
2 15
1 14
1 13
1 1
4 24
3 54
2 46
1 3
1 4
1 2
1 4
3 4
1 4
1 2
3 1
3 2
1 1
2 1
3 1
7 8
16 4
3 17
2 19
1 14
1 5
1 3
1 6
1 9
2 10
3 5
1 7
1 6
1 4
1 2
1 2
1 2
1 2
1 6
2 3
2 1
2 3
1 2
1 2
1 1
1 8
2 15
1 16
1 3
1 3
2 2
1 1
2 1
14 23
6 14
2 9
2 10
1 6
1 4
1 9
1 6
1 14
7 6
1 2
1 11
1 14
21 47
4 40
2 20
2 2
3 1
1 1
2 1
10 18
5 2
17 2
2 1
9 1
16 1
14 1
14 1
17 4
680 95
48 1
166 16
12 1
72 2
20 2
1 1
6 1
12 1
4 1
13 1
25 1
11 2
21 1
10 1
61 1
3 2
22 1
24 1
58 1
52 3
6 3
35 1
1 1
1 1
1 1
29 1
7 1
38 1
49 4
190 5
115 1
8 1
84 2
178 15
1 12
5 4
2 1
2 1
2 2
2 1
3 1
1 1
8 2
1 3
1 2
9 1
1 5
1 2
10 2
2 1
5 2
2 2
1 4
1 1
2 1
1 2
1 1
7 1
2 3
1 1
5 1
2 2
2 1
1 1
1 1
9 2
1 1
3 3
3 2
7 1
1 1
3 1
6 1
1 1
34 10
58 13
55 3
25 14
15 7
1 2
1 1
14 6
1 6
1 11
1 2
2 4
7 4
3 1
5 2
1 1
5 2
1 1
1 1
5 3
27 4
1 10
11 4
1 1
1 1
8 1
1 1
12 5
1 2
5 2
5 1
3 2
1 1
7 1
2 1
1 1
2 1
2 1
6 1
7 1
3 1
1 1
1 1
4 1
3 1
1 1
3 9
6 1
5 1
7 1
8 1
3 2
2 1
96 1
66 6
83 1
5 1
61 1
18 1
9 1
72 2
24 1
18 1
16 1
11 1
3 1
1 1
5 1
19 1
29 1
52 1
57 1
3 1
28 1
2 1
1 1
2 1
107 12
295 3
99 4
319 5
156 6
7 5
5 6
15 1
2 1
13 1
89 1
49 1
9 1
13 1
6 1
315 1
159 1
399 1
542 5
38 5
4 3
275 3
23 3
11 2
1 1
9 1
5 1
87 1
46 1
124 1
14 1
106 1
167 2
291 1
1 1
48 1
10 1
208 1
58 1
862 9
137 4
1 1
1 4
50 3
9 5
53 5
9 2
3 3
25 3
43 1
16 1
23 1
10 1
38 1
